# Philips Medical Systems Presentation LUT

# number of entries (x,y)
count 256

# maximum x value (optional)
#xMax 255

# maximum y value (optional)
#yMax 255

# table data
# x   y

  0   0
  1   1
  2   2
  3   3
  4   4
  5   5
  6   6
  7   7
  8   9
  9  10
 10  11
 11  12
 12  13
 13  15
 14  16
 15  17
 16  18
 17  20
 18  21
 19  22
 20  23
 21  24
 22  26
 23  27
 24  28
 25  29
 26  31
 27  32
 28  33
 29  35
 30  36
 31  37
 32  38
 33  40
 34  41
 35  42
 36  44
 37  45
 38  46
 39  48
 40  49
 41  50
 42  51
 43  53
 44  54
 45  55
 46  57
 47  58
 48  59
 49  61
 50  62
 51  63
 52  65
 53  66
 54  67
 55  68
 56  70
 57  71
 58  72
 59  74
 60  75
 61  76
 62  77
 63  79
 64  80
 65  81
 66  83
 67  84
 68  85
 69  86
 70  88
 71  89
 72  90
 73  91
 74  93
 75  94
 76  95
 77  96
 78  97
 79  99
 80 100
 81 101
 82 102
 83 103
 84 104
 85 106
 86 107
 87 108
 88 109
 89 110
 90 111
 91 112
 92 113
 93 114
 94 115
 95 117
 96 118
 97 119
 98 120
 99 121
100 122
101 123
102 124
103 125
104 126
105 127
106 128
107 129
108 130
109 131
110 132
111 133
112 134
113 135
114 136
115 137
116 138
117 139
118 140
119 141
120 142
121 143
122 144
123 145
124 146
125 147
126 148
127 149
128 150
129 151
130 152
131 153
132 154
133 155
134 156
135 157
136 158
137 159
138 160
139 161
140 162
141 163
142 164
143 165
144 166
145 167
146 168
147 169
148 170
149 171
150 172
151 172
152 173
153 174
154 175
155 176
156 177
157 178
158 179
159 180
160 181
161 182
162 182
163 183
164 184
165 185
166 186
167 187
168 188
169 188
170 189
171 190
172 191
173 192
174 193
175 194
176 194
177 195
178 196
179 197
180 198
181 199
182 199
183 200
184 201
185 202
186 203
187 204
188 204
189 205
190 206
191 207
192 208
193 209
194 209
195 210
196 211
197 212
198 213
199 213
200 214
201 215
202 216
203 216
204 217
205 218
206 219
207 220
208 220
209 221
210 222
211 223
212 223
213 224
214 225
215 226
216 226
217 227
218 228
219 229
220 229
221 230
222 231
223 232
224 232
225 233
226 234
227 235
228 235
229 236
230 237
231 238
232 238
233 239
234 240
235 240
236 241
237 242
238 242
239 243
240 244
241 244
242 245
243 246
244 246
245 247
246 248
247 249
248 249
249 250
250 251
251 251
252 252
253 253
254 254
255 255

# eof